networks/zoo_66_423/zoo_66_423.txt
Number of groups: 43
Flow 9: {22 13} {13 46} 
Flow 23: {22 30} {30 63} 
Flow 26: {2 1} {1 25} 
Flow 32: {3 25} {25 1} {1 7} {7 40} 
Flow 35: {3 22} {22 12} {12 45} 
Flow 40: {22 20} 
Flow 61: {4 25} {25 22} {22 28} {28 27} {27 60} 
Flow 78: {5 21} {21 20} {20 53} 
Flow 94: {6 21} 
Flow 110: {7 2} {2 35} 
Flow 113: {9 6} 
Flow 126: {26 27} {27 28} {28 61} 
Flow 133: {10 21} {21 22} 
Flow 154: {12 22} {22 55} 
Flow 157: {13 22} 
Flow 174: {14 22} {22 29} {29 62} 
Flow 178: {15 14} {14 11} {11 21} {21 8} 
Flow 184: {16 17} {17 50} 
Flow 190: {8 21} {21 5} {5 4} {4 37} 
Flow 212: {18 17} {17 8} {8 7} {7 1} {1 34} 
Flow 214: {18 19} {19 21} 
Flow 218: {20 21} 
Flow 221: {20 22} {22 25} {25 58} 
Flow 230: {21 10} {10 43} 
Flow 238: {19 18} {18 51} 
Flow 239: {21 19} {19 52} 
Flow 242: {17 23} {23 56} 
Flow 252: {25 24} {24 33} {33 66} 
Flow 254: {1 2} 
Flow 279: {23 17} 
Flow 283: {24 25} {25 4} {4 5} {5 38} 
Flow 286: {11 44} 
Flow 289: {7 8} {8 17} {17 16} {16 49} 
Flow 305: {21 6} {6 39} 
Flow 337: {9 21} {21 11} {11 14} {14 47} 
Flow 354: {27 26} {26 9} {9 42} 
Flow 364: {28 22} {22 31} {31 32} {32 65} 
Flow 380: {29 22} {22 14} {14 15} {15 48} 
Flow 388: {21 9} {9 26} {26 59} 
Flow 394: {30 22} 
Flow 410: {31 22} {22 21} {21 54} 
Flow 412: {32 33} {33 24} {24 57} 
Flow 423: {33 32} {32 31} {31 64} 
Time taken running everything: 6 seconds
