networks/zoo_66_423/zoo_66_423.sol
<?xml version = "1.0" encoding="UTF-8" standalone="yes"?>
<CPLEXSolution version="1.2">
 <header
   problemName="networks/zoo_66_423/zoo_66_423.lp"
   solutionName="incumbent"
   solutionIndex="-1"
   objectiveValue="43"
   solutionTypeValue="3"
   solutionTypeString="primal"
   solutionStatusValue="101"
   solutionStatusString="integer optimal solution"
   solutionMethodString="mip"
   primalFeasible="1"
   dualFeasible="1"
   MIPNodes="0"
   MIPIterations="8301"
   writeLevel="3"/>
 <quality
   epInt="1.0000000000000001e-05"
   epRHS="9.9999999999999995e-07"
   maxIntInfeas="1.1250188426938515e-09"
   maxPrimalInfeas="7.000000579182597e-09"
   maxX="4"
   maxSlack="10"/>
 <variables>
  <variable name="Y(1,2)" index="1" value="1"/>
  <variable name="Y(3,5)" index="132" value="4.8611448200119867e-11"/>
  <variable name="Y(5,7)" index="262" value="3.7499381377870122e-10"/>
  <variable name="Y(9,13)" index="524" value="1"/>
  <variable name="Y(12,16)" index="719" value="1"/>
  <variable name="Y(23,30)" index="1437" value="1"/>
  <variable name="Y(26,1)" index="1600" value="1"/>
  <variable name="Y(30,5)" index="1860" value="2.2221668519184151e-10"/>
  <variable name="Y(31,6)" index="1925" value="1"/>
  <variable name="Y(32,7)" index="1990" value="0.99999999962500619"/>
  <variable name="Y(35,12)" index="2187" value="1"/>
  <variable name="Y(60,26)" index="3801" value="1"/>
  <variable name="Y(61,27)" index="3866" value="1"/>
  <variable name="Y(68,4)" index="4291" value="8.5419069519428748e-10"/>
  <variable name="Y(78,20)" index="4947" value="1"/>
  <variable name="Y(89,1)" index="5632" value="1"/>
  <variable name="Y(110,7)" index="6982" value="1"/>
  <variable name="Y(111,4)" index="7043" value="1"/>
  <variable name="Y(113,9)" index="7176" value="1"/>
  <variable name="Y(126,28)" index="8027" value="1"/>
  <variable name="Y(134,25)" index="8536" value="1"/>
  <variable name="Y(153,32)" index="9759" value="1"/>
  <variable name="Y(154,22)" index="9813" value="1"/>
  <variable name="Y(157,13)" index="9996" value="1"/>
  <variable name="Y(166,22)" index="10581" value="1"/>
  <variable name="Y(178,11)" index="11338" value="1"/>
  <variable name="Y(185,8)" index="11783" value="1"/>
  <variable name="Y(195,11)" index="12426" value="1"/>
  <variable name="Y(199,15)" index="12686" value="1"/>
  <variable name="Y(213,17)" index="13584" value="1"/>
  <variable name="Y(214,19)" index="13650" value="1"/>
  <variable name="Y(218,20)" index="13907" value="1"/>
  <variable name="Y(222,22)" index="14165" value="1"/>
  <variable name="Y(230,10)" index="14665" value="1"/>
  <variable name="Y(238,18)" index="15185" value="1"/>
  <variable name="Y(239,19)" index="15250" value="1"/>
  <variable name="Y(242,23)" index="15446" value="1"/>
  <variable name="Y(252,33)" index="16096" value="1"/>
  <variable name="Y(279,23)" index="17814" value="1"/>
  <variable name="Y(282,4)" index="17987" value="-8.5419069519428748e-10"/>
  <variable name="Y(283,5)" index="18052" value="0.99999999972917186"/>
  <variable name="Y(354,9)" index="22600" value="1"/>
  <variable name="Y(362,29)" index="23132" value="1"/>
  <variable name="Y(379,14)" index="24205" value="1"/>
  <variable name="Y(394,30)" index="25181" value="1"/>
  <variable name="Y(410,21)" index="26196" value="1"/>
  <variable name="Y(412,24)" index="26327" value="1"/>
  <variable name="Y(423,31)" index="27038" value="1"/>
  <variable name="X(1,2,1)" index="27072" value="1"/>
  <variable name="X(1,7,5)" index="27499" value="-1.2499394994754715e-10"/>
  <variable name="X(1,7,32)" index="27526" value="0.99999999962500641"/>
  <variable name="X(1,7,289)" index="27783" value="4.9998754168164345e-10"/>
  <variable name="X(1,25,26)" index="27943" value="1"/>
  <variable name="X(1,34,89)" index="28429" value="1"/>
  <variable name="X(2,1,26)" index="28789" value="1"/>
  <variable name="X(2,35,1)" index="29187" value="1"/>
  <variable name="X(3,22,35)" index="29644" value="1"/>
  <variable name="X(3,25,30)" index="30062" value="3.7499378110524699e-10"/>
  <variable name="X(3,25,32)" index="30064" value="0.99999999962500619"/>
  <variable name="X(4,5,3)" index="30458" value="4.8611462307722527e-11"/>
  <variable name="X(4,5,30)" index="30485" value="1.6666251389388114e-10"/>
  <variable name="X(4,5,53)" index="30508" value="5.5554171297960346e-11"/>
  <variable name="X(4,5,283)" index="30738" value="0.99999999972917186"/>
  <variable name="X(4,25,61)" index="30939" value="1"/>
  <variable name="X(4,37,68)" index="31369" value="8.5419069519428748e-10"/>
  <variable name="X(4,37,111)" index="31412" value="1"/>
  <variable name="X(4,37,282)" index="31583" value="-8.5419069519428748e-10"/>
  <variable name="X(5,4,66)" index="31790" value="-8.5419069519428748e-10"/>
  <variable name="X(5,4,68)" index="31792" value="8.5419069519428748e-10"/>
  <variable name="X(5,4,111)" index="31835" value="1"/>
  <variable name="X(5,21,60)" index="32207" value="1"/>
  <variable name="X(5,38,3)" index="32573" value="4.8611448200119867e-11"/>
  <variable name="X(5,38,30)" index="32600" value="2.2221668519184151e-10"/>
  <variable name="X(5,38,283)" index="32853" value="0.99999999972917186"/>
  <variable name="X(6,21,89)" index="33082" value="1"/>
  <variable name="X(6,39,31)" index="33447" value="1"/>
  <variable name="X(7,1,89)" index="33928" value="1"/>
  <variable name="X(7,2,110)" index="34372" value="1"/>
  <variable name="X(7,8,12)" index="34697" value="1.0000000010000001"/>
  <variable name="X(7,8,289)" index="34974" value="-1.000000082740371e-09"/>
  <variable name="X(7,40,5)" index="35113" value="3.7499381377870122e-10"/>
  <variable name="X(7,40,32)" index="35140" value="0.99999999962500619"/>
  <variable name="X(8,7,89)" index="35620" value="1"/>
  <variable name="X(8,17,12)" index="35966" value="1.0000000010000001"/>
  <variable name="X(8,17,289)" index="36243" value="-1.000000082740371e-09"/>
  <variable name="X(8,21,185)" index="36562" value="1"/>
  <variable name="X(9,6,113)" index="36913" value="1"/>
  <variable name="X(9,21,111)" index="37334" value="1"/>
  <variable name="X(9,26,60)" index="37706" value="1"/>
  <variable name="X(9,42,354)" index="38423" value="1"/>
  <variable name="X(10,21,134)" index="38626" value="1"/>
  <variable name="X(10,43,230)" index="39145" value="1"/>
  <variable name="X(11,14,199)" index="39537" value="1"/>
  <variable name="X(11,21,178)" index="39939" value="1"/>
  <variable name="X(11,44,195)" index="40379" value="1"/>
  <variable name="X(12,22,154)" index="40761" value="1"/>
  <variable name="X(12,45,35)" index="41065" value="1"/>
  <variable name="X(13,22,157)" index="41610" value="1"/>
  <variable name="X(13,46,9)" index="41885" value="1"/>
  <variable name="X(14,11,178)" index="42477" value="1"/>
  <variable name="X(14,15,199)" index="42921" value="1"/>
  <variable name="X(14,22,166)" index="43311" value="1"/>
  <variable name="X(14,47,379)" index="43947" value="1"/>
  <variable name="X(15,14,178)" index="44169" value="1"/>
  <variable name="X(15,48,199)" index="44613" value="1"/>
  <variable name="X(16,17,185)" index="45022" value="1"/>
  <variable name="X(16,49,12)" index="45272" value="1"/>
  <variable name="X(17,8,185)" index="45868" value="1"/>
  <variable name="X(17,16,12)" index="46118" value="1"/>
  <variable name="X(17,23,242)" index="46771" value="1"/>
  <variable name="X(17,50,213)" index="47165" value="1"/>
  <variable name="X(18,17,213)" index="47588" value="1"/>
  <variable name="X(18,19,214)" index="48012" value="1"/>
  <variable name="X(18,51,238)" index="48459" value="1"/>
  <variable name="X(19,18,238)" index="48882" value="1"/>
  <variable name="X(19,21,214)" index="49281" value="1"/>
  <variable name="X(19,52,239)" index="49729" value="1"/>
  <variable name="X(20,21,218)" index="50131" value="1"/>
  <variable name="X(20,22,222)" index="50558" value="1"/>
  <variable name="X(20,53,78)" index="50837" value="1"/>
  <variable name="X(21,5,111)" index="51293" value="1"/>
  <variable name="X(21,6,31)" index="51636" value="1"/>
  <variable name="X(21,8,89)" index="52117" value="1"/>
  <variable name="X(21,9,60)" index="52511" value="1"/>
  <variable name="X(21,10,230)" index="53104" value="1"/>
  <variable name="X(21,11,195)" index="53492" value="1.0000000010000001"/>
  <variable name="X(21,11,337)" index="53634" value="-1.000000082740371e-09"/>
  <variable name="X(21,19,239)" index="53959" value="1"/>
  <variable name="X(21,20,78)" index="54221" value="1"/>
  <variable name="X(21,22,134)" index="54700" value="1"/>
  <variable name="X(21,54,410)" index="55399" value="1"/>
  <variable name="X(22,12,35)" index="55447" value="1"/>
  <variable name="X(22,13,9)" index="55844" value="1"/>
  <variable name="X(22,14,379)" index="56637" value="1"/>
  <variable name="X(22,20,166)" index="56847" value="1"/>
  <variable name="X(22,21,410)" index="57514" value="1"/>
  <variable name="X(22,25,134)" index="57661" value="1"/>
  <variable name="X(22,28,61)" index="58011" value="1"/>
  <variable name="X(22,29,362)" index="58735" value="1"/>
  <variable name="X(22,30,23)" index="58819" value="1"/>
  <variable name="X(22,31,222)" index="59441" value="1"/>
  <variable name="X(22,55,154)" index="59796" value="1"/>
  <variable name="X(23,17,279)" index="60344" value="1"/>
  <variable name="X(23,56,242)" index="60730" value="1"/>
  <variable name="X(24,25,282)" index="61193" value="-8.5419069519428748e-10"/>
  <variable name="X(24,25,283)" index="61194" value="0.99999999972917186"/>
  <variable name="X(24,25,289)" index="61200" value="1.1250188426938515e-09"/>
  <variable name="X(24,33,252)" index="61586" value="1"/>
  <variable name="X(24,57,412)" index="62169" value="1"/>
  <variable name="X(25,1,32)" index="62212" value="0.99999999962500619"/>
  <variable name="X(25,1,289)" index="62469" value="3.7499378110524699e-10"/>
  <variable name="X(25,4,3)" index="62606" value="1.4583438692316757e-10"/>
  <variable name="X(25,4,30)" index="62633" value="1.2499376057639646e-10"/>
  <variable name="X(25,4,283)" index="62886" value="0.99999999972917186"/>
  <variable name="X(25,22,61)" index="63087" value="1"/>
  <variable name="X(25,24,252)" index="63701" value="1"/>
  <variable name="X(25,58,134)" index="64006" value="1"/>
  <variable name="X(26,9,354)" index="64649" value="1"/>
  <variable name="X(26,27,126)" index="64844" value="1"/>
  <variable name="X(26,59,60)" index="65201" value="1"/>
  <variable name="X(27,26,354)" index="65918" value="1"/>
  <variable name="X(27,28,126)" index="66113" value="1"/>
  <variable name="X(27,60,61)" index="66471" value="1"/>
  <variable name="X(28,22,362)" index="67195" value="1"/>
  <variable name="X(28,27,61)" index="67317" value="1"/>
  <variable name="X(28,61,126)" index="67805" value="1"/>
  <variable name="X(29,22,379)" index="68481" value="1"/>
  <variable name="X(29,62,362)" index="68887" value="1"/>
  <variable name="X(30,22,394)" index="69342" value="1"/>
  <variable name="X(30,63,23)" index="69394" value="1"/>
  <variable name="X(31,22,410)" index="70204" value="1"/>
  <variable name="X(31,32,153)" index="70370" value="1"/>
  <variable name="X(31,64,423)" index="71063" value="1"/>
  <variable name="X(32,31,423)" index="71486" value="1"/>
  <variable name="X(32,33,412)" index="71898" value="1"/>
  <variable name="X(32,65,153)" index="72062" value="1"/>
  <variable name="X(33,24,412)" index="72744" value="1"/>
  <variable name="X(33,32,423)" index="73178" value="1"/>
  <variable name="X(33,66,252)" index="73430" value="1"/>
  <variable name="C(1,2)" index="73603" value="1"/>
  <variable name="C(3,4)" index="73609" value="1.4583438692316757e-10"/>
  <variable name="C(3,5)" index="73610" value="1.9444584923089011e-10"/>
  <variable name="C(5,7)" index="73617" value="-1.2499394994754715e-10"/>
  <variable name="C(9,13)" index="73635" value="1"/>
  <variable name="C(12,8)" index="73647" value="1.0000000010000001"/>
  <variable name="C(12,17)" index="73648" value="2.0000000020000002"/>
  <variable name="C(12,16)" index="73649" value="3.0000000030000002"/>
  <variable name="C(23,30)" index="73692" value="1"/>
  <variable name="C(26,1)" index="73703" value="1"/>
  <variable name="C(30,25)" index="73717" value="3.7499378110524699e-10"/>
  <variable name="C(30,4)" index="73718" value="4.9998754168164345e-10"/>
  <variable name="C(30,5)" index="73719" value="6.6665005557552457e-10"/>
  <variable name="C(31,6)" index="73723" value="0.99999999999999978"/>
  <variable name="C(32,25)" index="73725" value="0.99999999962500619"/>
  <variable name="C(32,1)" index="73726" value="1.9999999992500128"/>
  <variable name="C(32,7)" index="73727" value="2.999999998875019"/>
  <variable name="C(35,22)" index="73737" value="1"/>
  <variable name="C(35,12)" index="73738" value="2"/>
  <variable name="C(60,21)" index="73823" value="1"/>
  <variable name="C(60,9)" index="73824" value="2"/>
  <variable name="C(60,26)" index="73825" value="3"/>
  <variable name="C(61,25)" index="73827" value="1"/>
  <variable name="C(61,22)" index="73828" value="2"/>
  <variable name="C(61,28)" index="73829" value="2.9999999999999996"/>
  <variable name="C(61,27)" index="73830" value="3.9999999999999996"/>
  <variable name="C(66,4)" index="73849" value="-8.5419069519428748e-10"/>
  <variable name="C(68,4)" index="73858" value="8.5419069519428748e-10"/>
  <variable name="C(78,20)" index="73896" value="1"/>
  <variable name="C(89,21)" index="73936" value="1"/>
  <variable name="C(89,8)" index="73937" value="2"/>
  <variable name="C(89,7)" index="73938" value="3"/>
  <variable name="C(89,1)" index="73939" value="4"/>
  <variable name="C(111,21)" index="74026" value="1"/>
  <variable name="C(111,5)" index="74027" value="2"/>
  <variable name="C(111,4)" index="74028" value="3"/>
  <variable name="C(126,27)" index="74079" value="1"/>
  <variable name="C(126,28)" index="74080" value="2"/>
  <variable name="C(134,21)" index="74112" value="1"/>
  <variable name="C(134,22)" index="74113" value="2"/>
  <variable name="C(134,25)" index="74114" value="3"/>
  <variable name="C(153,32)" index="74189" value="1"/>
  <variable name="C(154,22)" index="74191" value="1"/>
  <variable name="C(166,22)" index="74238" value="1"/>
  <variable name="C(178,14)" index="74280" value="1"/>
  <variable name="C(178,11)" index="74281" value="2"/>
  <variable name="C(185,17)" index="74309" value="1"/>
  <variable name="C(185,8)" index="74310" value="2"/>
  <variable name="C(195,11)" index="74357" value="1.0000000010000001"/>
  <variable name="C(199,14)" index="74377" value="1"/>
  <variable name="C(199,15)" index="74378" value="2"/>
  <variable name="C(213,17)" index="74441" value="1"/>
  <variable name="C(214,19)" index="74443" value="1"/>
  <variable name="C(222,22)" index="74470" value="1.0000000000000031"/>
  <variable name="C(230,10)" index="74493" value="1"/>
  <variable name="C(238,18)" index="74518" value="1"/>
  <variable name="C(239,19)" index="74520" value="1"/>
  <variable name="C(242,23)" index="74528" value="1"/>
  <variable name="C(252,24)" index="74562" value="1"/>
  <variable name="C(252,33)" index="74563" value="2"/>
  <variable name="C(283,25)" index="74655" value="0.99999999972917186"/>
  <variable name="C(283,4)" index="74656" value="1.9999999994583437"/>
  <variable name="C(283,5)" index="74657" value="2.9999999991875157"/>
  <variable name="C(289,25)" index="74683" value="1.1250188426938515e-09"/>
  <variable name="C(289,1)" index="74684" value="1.5000126237990984e-09"/>
  <variable name="C(289,7)" index="74685" value="2.000000165480742e-09"/>
  <variable name="C(289,8)" index="74686" value="1.000000082740371e-09"/>
  <variable name="C(337,11)" index="74872" value="-1.000000082740371e-09"/>
  <variable name="C(354,26)" index="74951" value="1"/>
  <variable name="C(354,9)" index="74952" value="2"/>
  <variable name="C(362,22)" index="74981" value="1"/>
  <variable name="C(362,29)" index="74982" value="2"/>
  <variable name="C(379,22)" index="75048" value="1"/>
  <variable name="C(379,14)" index="75049" value="2"/>
  <variable name="C(410,22)" index="75174" value="1"/>
  <variable name="C(410,21)" index="75175" value="2"/>
  <variable name="C(412,33)" index="75180" value="1"/>
  <variable name="C(412,24)" index="75181" value="2"/>
  <variable name="C(423,32)" index="75224" value="1"/>
  <variable name="C(423,31)" index="75225" value="1.9999999999999991"/>
 </variables>
</CPLEXSolution>
